76
23
0 23 26 28 30 31 32 35 40 42 43 44 45 49 50 51 55 56 57 58 60 62 70 75
1 23 30 31 34 35 36 41 42 45 49 50 51 54 56 57 58 60 62 64 65 67 69 70 71 72 73 74 75
2 23 29 30 31 35 39 40 41 42 43 45 47 49 50 51 54 55 56 57 58 60 62 63 64 66 69 70 71 72
3 23 29 30 31 33 34 35 37 39 40 41 42 43 44 45 49 50 51 54 56 57 58 60 62 65 66 67 70 71 75
4 23 24 25 26 28 29 30 31 32 34 35 38 39 40 42 43 45 49 50 51 54 56 57 60 61 62 64 70 71 72
5 24 27 28 29 30 31 32 35 37 38 40 43 45 46 50 51 53 56 58 60 61 63 64 65 67 69 70 71
6 23 25 28 29 31 32 38 40 41 42 45 49 51 56 58 61 62 64 69 70 71 73 75
7 25 26 28 29 30 31 32 33 35 37 38 39 40 43 52 54 56 57 58 60 61 64 67 70 71 73 75
8 27 28 29 32 33 38 41 42 43 44 47 48 49 50 51 56 57 60 61 62 66 69 72 73 75
9 23 28 30 31 33 35 37 39 40 42 43 45 49 50 51 55 57 61 62 65 71 74 75
10 25 27 30 32 33 35 43 46 49 50 54 57 58 60 61 62 63 67 70 71 72 73
11 26 27 29 32 33 41 45 47 50 51 54 60 61 65 66 69 70 72 73
12 24 25 28 37 38 39 40 41 42 43 49 50 60 63 67 68 75
13 23 24 26 28 33 35 36 37 38 40 41 42 45 50 54 57 60 63 64 70 72 75
14 23 29 34 36 38 39 40 41 43 44 46 49 54 55 56 60 67 69 70 73 75
15 30 31 39 41 48 49 54 71 73
16 24 27 32 36 37 38 40 41 44 55 62 65 72
17 23 25 27 29 36 38 43 54 57 59 61 67 71 72 75
18 28 31 32 41 60 75
19 27 28 33 36 38 39 43 44 45 46 47 54 59 65 66 74
20 45
21 29 31 67
22 59
